words_train/words_167_SAT.qaiger
aag 64 24 0 1 40
36
44
42
46
40
18
28
26
30
2
8
32
20
4
14
34
38
6
22
10
48
24
12
16
128
50 30 15
52 31 14
54 29 12
56 55 53
58 26 11
60 28 13
62 61 59
64 20 5
66 22 7
68 24 9
70 69 67
72 70 2
74 72 65
76 27 10
78 25 8
80 79 77
82 23 6
84 21 4
86 85 83
88 87 70
90 89 80
92 90 75
94 93 62
96 95 56
98 97 51
100 86 80
102 100 74
104 56 51
106 104 34
108 106 62
110 108 102
112 33 17
114 32 16
116 115 113
118 116 111
120 117 110
122 121 119
124 123 98
126 122 99
128 127 125
i0 1 x[1]
i1 1 x[5]
i2 1 x[4]
i3 1 x[6]
i4 1 x[3]
i5 2 z[0]
i6 2 z[5]
i7 2 z[4]
i8 2 z[6]
i9 2 y[0]
i10 2 y[3]
i11 2 z[7]
i12 2 z[1]
i13 2 y[1]
i14 2 y[6]
i15 1 x[0]
i16 1 x[2]
i17 2 y[2]
i18 2 z[2]
i19 2 y[4]
i20 1 x[7]
i21 2 z[3]
i22 2 y[5]
i23 2 y[7]
o0 bv[0]
c
simplified
  >=
    subtract
      2 y
      or
        1
        2 z
    and
      1
      1 x
