words_train/words_167_SAT.qaiger.qdimacs
p cnf 64 121
a 17 18 19 20 21 22 23 24 0
e 1 2 3 4 5 6 7 8 9 10 11 12 13 14 15 16 25 26 27 28 29 30 31 32 33 34 35 36 37 38 39 40 41 42 43 44 45 46 47 48 49 50 51 52 53 54 55 56 57 58 59 60 61 62 63 64 0
-15 7 25 0
15 -25 0
-7 -25 0
15 -7 26 0
-15 -26 0
7 -26 0
14 -6 27 0
-14 -27 0
6 -27 0
27 26 28 0
-27 -28 0
-26 -28 0
-13 5 29 0
13 -29 0
-5 -29 0
-14 6 30 0
14 -30 0
-6 -30 0
30 29 31 0
-30 -31 0
-29 -31 0
-10 2 32 0
10 -32 0
-2 -32 0
-11 3 33 0
11 -33 0
-3 -33 0
-12 4 34 0
12 -34 0
-4 -34 0
34 33 35 0
-34 -35 0
-33 -35 0
-35 -1 36 0
35 -36 0
1 -36 0
-36 32 37 0
36 -37 0
-32 -37 0
13 -5 38 0
-13 -38 0
5 -38 0
12 -4 39 0
-12 -39 0
4 -39 0
39 38 40 0
-39 -40 0
-38 -40 0
11 -3 41 0
-11 -41 0
3 -41 0
10 -2 42 0
-10 -42 0
2 -42 0
42 41 43 0
-42 -43 0
-41 -43 0
43 -35 44 0
-43 -44 0
35 -44 0
44 -40 45 0
-44 -45 0
40 -45 0
-45 37 46 0
45 -46 0
-37 -46 0
46 -31 47 0
-46 -47 0
31 -47 0
47 -28 48 0
-47 -48 0
28 -48 0
48 25 49 0
-48 -49 0
-25 -49 0
-43 -40 50 0
43 -50 0
40 -50 0
-50 -37 51 0
50 -51 0
37 -51 0
-28 25 52 0
28 -52 0
-25 -52 0
-52 -17 53 0
52 -53 0
17 -53 0
-53 -31 54 0
53 -54 0
31 -54 0
-54 -51 55 0
54 -55 0
51 -55 0
16 8 56 0
-16 -56 0
-8 -56 0
-16 -8 57 0
16 -57 0
8 -57 0
57 56 58 0
-57 -58 0
-56 -58 0
-58 55 59 0
58 -59 0
-55 -59 0
58 -55 60 0
-58 -60 0
55 -60 0
60 59 61 0
-60 -61 0
-59 -61 0
61 -49 62 0
-61 -62 0
49 -62 0
-61 49 63 0
61 -63 0
-49 -63 0
63 62 64 0
-63 -64 0
-62 -64 0
64 0
